sever
materi
augment
shock
wave
fractur
approach
develop
sever
weaken
varieti
materi
parallel
groov
cut
materi
surfac
explos
cord
embed
groov
simultan
initi
explos
cord
produc
shock
wave
materi
weaken
fail
desir
locat
techniqu
produc
harm
debri
result
process
potenti
commerci
fighter
aircraft
escap
canopi
sever
canopi
eject
crew
modul
sever
panel
sever
commerci
aviat
sever
passeng
egress
panel
sever
panel
fire
suppress
vent
launch
vehicl
stage
sever
panel
missil
deploy
recoveri
benefit
harm
inboard
debri
simpler
assembl
common
usag
embed
explos
cord
damag
protect
canopi
sever
minimum
visual
interfer
simpl
modif
exist
canopi
loss
canopi
strength
commerci
aviat
replac
plug
type
open
solid
panel
resist
jam
reduc
weight
open
reduc
mainten
cross
section
view
augment
shock
wave
sever
approach
metal
bottom
notch
requir
canopi
materi
conceptu
view
incid
reflect
shock
wave
metal
produc
augment
tensil
front
centerlin
technolog
approach
sever
weaken
varieti
materi
techniqu
emploi
embed
explos
cord
parallel
groov
cut
surfac
materi
cord
initi
simultan
produc
shock
wave
progress
centerlin
cord
lower
surfac
materi
intersect
incid
reflect
wave
augment
centerlin
fail
weaken
materi
tension
harm
debri
produc
opposit
side
materi
explos
cord
explos
materi
select
applic
depend
environ
requir
explos
cord
stabl
cryogen
temperatur
deg
high
pressur
deep
space
vacuum
option
commerci
nasa
seek
industri
partner
cooper
develop
commerci
product
explos
sever
process
agreement
effect
mcdonnel
dougla
st
loui
explos
fractur
fighter
aircraft
canopi
jointli
author
patent
applic
file
futur
patent
process
develop
joint
agreement
fulli
exploit
licens
royalti
share
commerci
opportun
part
nasa
technolog
transfer
program
object
program
proactiv
involv
privat
sector
nasa
research
program
ensur
technolog
develop
maximum
commerci
impact
work
nasa
langlei
technolog
transfer
process
detail
fill
commerci
partnership
form
interest
commerci
partner
develop
technolog
